(set-logic QF_S)
(declare-fun var0 () String)
(declare-fun var1 () Int)
(declare-fun var2 () String)
(declare-fun var3 () Int)
(declare-fun var4 () String)
(declare-fun var5 () String)
(declare-fun var6 () Int)
(declare-fun var7 () Int)
(assert (> (str.to.int var0) (str.indexof (str.at "3&^*-" var1) (str.substr var2 101 var3) (str.to.int var4))))
(assert (>= (str.indexof (str.at var5 var6) (str.at var0 var7) (str.to.int var5)) (str.to.int (str.substr var4 var7 var1))))
(assert (str.contains var2 var2))
(assert (not (> (str.indexof var4 var5 131) (str.len var0))))
(check-sat)